************************************************************************
file with basedata            : J1205_.BAS
initial value random generator: 118756214
************************************************************************
projects                      :  1
jobs (incl. supersource/sink ):  122
horizon                       :  656
RESOURCES
  - renewable                 :  4   R
  - nonrenewable              :  0   N
  - doubly constrained        :  0   D
************************************************************************
PROJECT INFORMATION:
pronr.  #jobs rel.date duedate tardcost  MPM-Time
    1    120      0       77       41       77
************************************************************************
PRECEDENCE RELATIONS:
jobnr.    #modes  #successors   successors
   1        1          3           2   3   4
   2        1          3           7  10  11
   3        1          3           5   8   9
   4        1          3          18  24  29
   5        1          3           6  23  43
   6        1          1          70
   7        1          1          99
   8        1          3          12  32  33
   9        1          3          16  18  45
  10        1          3          13  53  66
  11        1          2          31 118
  12        1          3          14  15  17
  13        1          2          25 117
  14        1          1          50
  15        1          2          92 112
  16        1          3          20  22  54
  17        1          3          34  37  41
  18        1          1          19
  19        1          3          21  56  99
  20        1          1          38
  21        1          3          48  58  72
  22        1          2          35  90
  23        1          1          54
  24        1          3          26  27  39
  25        1          2          88 103
  26        1          2          69 107
  27        1          3          28  87  93
  28        1          2          30  49
  29        1          3          40  61  80
  30        1          3          67  81 101
  31        1          1          64
  32        1          3          36  44  45
  33        1          3          46  75 116
  34        1          1          42
  35        1          2          60  71
  36        1          1          85
  37        1          2          51  97
  38        1          2          82 119
  39        1          1          54
  40        1          2          50  52
  41        1          1          63
  42        1          3          55  70  80
  43        1          3          47  57  91
  44        1          1          59
  45        1          1          65
  46        1          1          74
  47        1          1          94
  48        1          1          55
  49        1          1          95
  50        1          2          73  94
  51        1          1         113
  52        1          2          62  63
  53        1          1         110
  54        1          1          68
  55        1          1          73
  56        1          1          83
  57        1          1          74
  58        1          2          68  83
  59        1          1          98
  60        1          1          79
  61        1          1          85
  62        1          1          87
  63        1          1         109
  64        1          1          79
  65        1          2          76 101
  66        1          1          82
  67        1          1          78
  68        1          1         120
  69        1          2          77 102
  70        1          3          74  89 115
  71        1          1          84
  72        1          1          80
  73        1          1          84
  74        1          1         106
  75        1          1          88
  76        1          1         114
  77        1          1          94
  78        1          1          95
  79        1          1          84
  80        1          1         105
  81        1          1          86
  82        1          1         110
  83        1          2          93 100
  84        1          1         107
  85        1          1          96
  86        1          1          96
  87        1          1          91
  88        1          1          95
  89        1          1         103
  90        1          1         100
  91        1          1          96
  92        1          1         104
  93        1          1         118
  94        1          1         100
  95        1          1         112
  96        1          1         112
  97        1          1         118
  98        1          1          99
  99        1          1         109
 100        1          1         109
 101        1          1         120
 102        1          1         111
 103        1          1         108
 104        1          1         105
 105        1          2         111 119
 106        1          1         113
 107        1          1         114
 108        1          1         114
 109        1          1         117
 110        1          1         111
 111        1          1         115
 112        1          1         121
 113        1          1         120
 114        1          1         116
 115        1          1         116
 116        1          1         121
 117        1          1         119
 118        1          1         121
 119        1          1         122
 120        1          1         122
 121        1          1         122
 122        1          0        
************************************************************************
REQUESTS/DURATIONS:
jobnr. mode duration  R 1  R 2  R 3  R 4
------------------------------------------------------------------------
  1      1     0       0    0    0    0
  2      1     6       0    0    0    9
  3      1     6       0    6    0    0
  4      1     9       0    1    0    0
  5      1    10       0    0    0    5
  6      1     6       0    0    0    7
  7      1     5       0    0    3    0
  8      1     1       0    0    0    3
  9      1     2       0    0   10    0
 10      1     5       0    0    0    8
 11      1     7       0    0    9    0
 12      1     3       7    0    0    0
 13      1     3       0    0    0    4
 14      1     6       0    0    0    8
 15      1    10       0    0    0    8
 16      1     1       3    0    0    0
 17      1     6       9    0    0    0
 18      1     4       0    0   10    0
 19      1     1       0    0    0    3
 20      1     8       5    0    0    0
 21      1     3       5    0    0    0
 22      1     1       3    0    0    0
 23      1     3       0    0    3    0
 24      1     8       1    0    0    0
 25      1     6       0    0    0    9
 26      1     8       0    0    6    0
 27      1     1       2    0    0    0
 28      1     3       1    0    0    0
 29      1     9       0   10    0    0
 30      1     3       0    0    7    0
 31      1    10       0    0    6    0
 32      1     1       0    0    8    0
 33      1    10       0    0    2    0
 34      1     2       0    0    0    1
 35      1     7       5    0    0    0
 36      1     8       0    0    0    5
 37      1     3       4    0    0    0
 38      1    10       0    0    0    5
 39      1     4       0    0    1    0
 40      1     1       3    0    0    0
 41      1     9       0    0    7    0
 42      1     6       0    1    0    0
 43      1    10       0    0    2    0
 44      1    10       0    4    0    0
 45      1     7       0    0    4    0
 46      1     2       0    0    0    8
 47      1     6       0    7    0    0
 48      1     9       8    0    0    0
 49      1     2       0    0    0    3
 50      1    10       0    0    3    0
 51      1     1       0    0    0    4
 52      1     8       0   10    0    0
 53      1     7       0    3    0    0
 54      1     2       0    1    0    0
 55      1    10       0    5    0    0
 56      1     5       0    0    0   10
 57      1     5       0    5    0    0
 58      1     9       8    0    0    0
 59      1     9       0    7    0    0
 60      1     5       0    1    0    0
 61      1     5       0    0    2    0
 62      1     9       3    0    0    0
 63      1     2       0    0    9    0
 64      1     9       0    0    7    0
 65      1     8       0    0    5    0
 66      1     2       0    0    0   10
 67      1    10       8    0    0    0
 68      1    10       0    8    0    0
 69      1     1       0    5    0    0
 70      1     7       0    0    0    7
 71      1    10       0    4    0    0
 72      1     7       0    6    0    0
 73      1     4       0    0    8    0
 74      1     3       0    2    0    0
 75      1     8       0    0    0    5
 76      1     7       0    9    0    0
 77      1     7       0    0    0    7
 78      1     6       3    0    0    0
 79      1     2       0    7    0    0
 80      1     3       0    0    3    0
 81      1     1       2    0    0    0
 82      1     1       0    0    1    0
 83      1     7       0    0    0    1
 84      1     5       0    6    0    0
 85      1    10       1    0    0    0
 86      1     9       6    0    0    0
 87      1     1       0    0    8    0
 88      1     3       0    6    0    0
 89      1     7       0    2    0    0
 90      1     5       0    0    3    0
 91      1     2       0    4    0    0
 92      1    10       0    0    0    6
 93      1     9       0    0    6    0
 94      1     2       0    1    0    0
 95      1     5       0    0    0    4
 96      1     7       2    0    0    0
 97      1     5       7    0    0    0
 98      1     4       0    6    0    0
 99      1     1       0   10    0    0
100      1     5       0    6    0    0
101      1    10       0    0    0    2
102      1     4       0   10    0    0
103      1     2       0    0    7    0
104      1     2       5    0    0    0
105      1     7       0    0    0   10
106      1     3       0    0    5    0
107      1    10       0    3    0    0
108      1     6       0    4    0    0
109      1     7       0    0    4    0
110      1     6       0    0    0    7
111      1     5       0    0    3    0
112      1     3       0    0   10    0
113      1     1       0    4    0    0
114      1     8       1    0    0    0
115      1     1       2    0    0    0
116      1     8       0    0    0    4
117      1     6       0    0    0    7
118      1     7       4    0    0    0
119      1     1       0    8    0    0
120      1     2       2    0    0    0
121      1     6       0    7    0    0
122      1     0       0    0    0    0
************************************************************************
RESOURCEAVAILABILITIES:
  R 1  R 2  R 3  R 4
   20   40   24   32
************************************************************************
